maximize
OBJ:100x0 + 100x1 + 100x2 + 100x3 + 100x4 + 100x5 + 100x6 + 100x7 + 100x8 + 100x9 + 100x10 + 100x11 + 100x12 + 100x13 + 100x14 + 100x15 + 100x16 + 100x17 + 100x18 + 100x19 + 100x20 + 100x21 + 100x22 + 100x23 + 100x24 + 100x25 + 100x26 + 100x27 + 100x28 + 100x29 + 100x30 + 100x31 + 100x32 + 100x33 + 100x34 + 100x35 + 100x36 + 100x37 + 100x38 + 100x39 + 100x40 + 100x41 + 100x42 + 100x43 + 100x44 + 100x45 + 100x46 + 100x47 + 100x48 + 100x49 + 100x50 + 100x51 + 100x52 + 100x53 + 100x54 + 100x55 + 100x56 + 100x57 + 100x58 + 100x59 + 100x60 + 100x61 + 100x62 + 100x63 + 100x64 - y7_17 - y26_30 - y9_63 - y6_48 - y11_14 - y21_55 - y21_64 - y10_27 - y33_38 - y25_34 - y44_47 - y2_41 - y3_6 - y3_15 - y51_64 - y25_61 - y3_24 - y22_37 - y22_46 - y14_42 - y47_48 - y15_25 - y55_61 - y18_21 - y47_57 - y28_53 - y18_30 - y6_34 - y29_36 - y0_9 - y48_58 - y21_41 - y6_52 - y10_31 - y2_27 - y10_49 - y44_51 - y10_58 - y51_59 - y3_19 - y32_55 - y3_28 - y14_28 - y32_64 - y43_64 - y36_43 - y28_39 - y7_16 - y9_44 - y9_53 - y5_64 - y21_27 - y6_38 - y6_47 - y21_54 - y39_62 - y62_64 - y33_37 - y2_31 - y12_63 - y3_5 - y2_49 - y32_50 - y43_50 - y35_46 - y14_23 - y32_59 - y13_55 - y35_55 - y16_51 - y24_64 - y16_60 - y17_25 - y9_30 - y55_60 - y9_39 - y17_52 - y28_52 - y5_59 - y9_57 - y21_22 - y50_58 - y21_31 - y6_42 - y29_44 - y40_44 - y2_8 - y2_17 - y2_26 - y54_64 - y10_39 - y2_35 - y32_45 - y51_58 - y3_18 - y14_18 - y24_50 - y43_63 - y16_46 - y13_59 - y35_59 - y16_55 - y36_42 - y36_51 - y47_51 - y28_47 - y5_54 - y17_56 - y28_56 - y29_30 - y9_61 - y27_60 - y42_58 - y21_35 - y2_3 - y10_16 - y20_48 - y39_61 - y12_44 - y62_63 - y2_21 - y23_53 - y2_30 - y12_62 - y13_27 - y23_62 - y3_4 - y32_40 - y13_36 - y32_49 - y35_45 - y32_58 - y16_41 - y35_54 - y17_24 - y17_42 - y5_40 - y9_47 - y5_58 - y58_61 - y42_44 - y42_53 - y0_56 - y31_34 - y2_7 - y20_43 - y31_43 - y23_57 - y13_31 - y1_38 - y24_40 - y5_8 - y35_58 - y5_17 - y17_19 - y49_51 - y46_64 - y38_60 - y9_33 - y7_63 - y6_9 - y6_18 - y50_52 - y30_46 - y8_55 - y30_55 - y20_29 - y12_25 - y23_25 - y20_38 - y39_51 - y20_47 - y39_60 - y4_39 - y23_52 - y24_26 - y13_35 - y16_31 - y1_42 - y35_44 - y38_46 - y46_59 - y26_53 - y26_62 - y6_13 - y19_32 - y19_41 - y42_43 - y50_56 - y11_37 - y8_50 - y11_46 - y20_33 - y31_42 - y12_38 - y4_34 - y12_47 - y23_47 - y12_56 - y45_53 - y24_30 - y22_60 - y34_62 - y5_16 - y26_48 - y49_50 - y7_44 - y49_59 - y18_53 - y27_31 - y18_62 - y27_40 - y30_36 - y50_51 - y0_32 - y42_47 - y27_58 - y11_41 - y8_54 - y19_54 - y30_54 - y42_56 - y20_28 - y4_11 - y11_59 - y12_24 - y4_20 - y12_33 - y12_42 - y1_5 - y34_39 - y13_16 - y24_25 - y16_21 - y56_57 - y37_62 - y26_34 - y15_43 - y26_43 - y18_39 - y38_54 - y7_48 - y15_61 - y26_61 - y18_57 - y8_22 - y27_35 - y27_53 - y11_36 - y4_6 - y0_54 - y12_19 - y41_55 - y20_32 - y34_43 - y53_56 - y37_57 - y5_6 - y7_25 - y15_38 - y26_56 - y7_52 - y0_13 - y11_13 - y8_26 - y48_62 - y27_39 - y19_35 - y19_44 - y11_40 - y12_14 - y41_50 - y60_63 - y4_10 - y33_46 - y12_23 - y10_62 - y22_36 - y34_38 - y22_54 - y3_50 - y37_52 - y14_59 - y15_24 - y7_20 - y7_29 - y7_47 - y8_12 - y8_21 - y0_26 - y29_62 - y40_62 - y11_35 - y33_50 - y52_63 - y25_46 - y33_59 - y2_53 - y25_55 - y25_64 - y34_42 - y22_49 - y34_51 - y45_51 - y14_45 - y7_15 - y14_63 - y15_28 - y7_42 - y18_42 - y0_3 - y29_39 - y29_48 - y48_61 - y29_57 - y6_64 - y33_36 - y10_43 - y33_45 - y41_58 - y2_39 - y33_63 - y44_63 - y25_59 - y14_22 - y22_35 - y37_42 - y22_53 - y3_49 - y14_49 - y7_10 - y36_46 - y17_51 - y17_60 - y9_56 - y29_34 - y0_7 - y48_56 - y0_16 - y29_61 - y40_61 - y21_57 - y10_38 - y33_40 - y2_34 - y33_49 - y44_49 - y25_45 - y3_8 - y51_57 - y14_17 - y2_61 - y32_62 - y43_62 - y22_39 - y13_58 - y16_63 - y7_14 - y17_46 - y36_59 - y28_55 - y9_51 - y48_51 - y6_45 - y29_47 - y40_47 - y21_52 - y6_63 - y2_20 - y33_44 - y13_53 - y24_62 - y35_62 - y16_58 - y7_9 - y55_58 - y17_41 - y5_48 - y36_63 - y47_63 - y28_59 - y6_22 - y9_55 - y29_33 - y21_29 - y21_38 - y29_51 - y2_6 - y2_24 - y13_39 - y3_16 - y14_16 - y13_48 - y14_25 - y43_61 - y17_18 - y16_62 - y17_36 - y6_8 - y17_54 - y28_63 - y58_64 - y9_59 - y6_44 - y20_46 - y39_59 - y2_19 - y10_32 - y2_28 - y23_60 - y13_25 - y4_56 - y32_38 - y3_11 - y32_47 - y51_60 - y1_41 - y13_43 - y16_39 - y1_59 - y16_57 - y5_29 - y17_31 - y9_27 - y5_38 - y17_40 - y28_40 - y28_49 - y42_51 - y27_62 - y42_60 - y0_63 - y11_63 - y20_41 - y20_50 - y31_50 - y23_46 - y2_23 - y4_42 - y31_59 - y12_64 - y23_64 - y24_29 - y16_25 - y1_36 - y13_38 - y24_38 - y1_45 - y13_47 - y1_54 - y35_56 - y16_52 - y17_26 - y9_22 - y9_31 - y6_7 - y6_16 - y42_46 - y21_23 - y27_57 - y19_53 - y42_55 - y0_49 - y42_64 - y20_27 - y11_58 - y31_36 - y31_45 - y31_54 - y31_63 - y1_22 - y53_60 - y32_37 - y32_46 - y16_29 - y1_40 - y24_42 - y1_49 - y38_44 - y46_57 - y38_53 - y17_30 - y9_26 - y26_60 - y38_62 - y6_20 - y19_39 - y30_39 - y27_52 - y19_48 - y42_50 - y50_63 - y30_57 - y42_59 - y39_44 - y2_4 - y39_53 - y31_49 - y31_58 - y16_24 - y45_60 - y24_37 - y46_52 - y9_12 - y15_46 - y5_23 - y38_48 - y27_47 - y27_56 - y11_39 - y11_48 - y12_13 - y30_61 - y0_57 - y12_22 - y4_18 - y20_44 - y4_27 - y31_44 - y34_46 - y45_46 - y16_19 - y45_55 - y56_64 - y1_39 - y5_9 - y46_56 - y15_59 - y18_55 - y8_20 - y19_20 - y18_64 - y27_42 - y0_34 - y8_47 - y19_47 - y42_49 - y0_43 - y11_43 - y8_56 - y19_56 - y30_56 - y11_52 - y12_17 - y20_30 - y11_61 - y41_62 - y52_62 - y31_39 - y23_35 - y34_41 - y22_48 - y3_53 - y14_53 - y3_62 - y14_62 - y26_27 - y37_64 - y15_36 - y7_32 - y18_32 - y15_45 - y7_41 - y26_54 - y15_63 - y27_28 - y0_11 - y27_37 - y0_20 - y19_42 - y30_42 - y0_47 - y11_47 - y20_25 - y4_17 - y33_62 - y22_43 - y34_54 - y37_59 - y7_27 - y7_36 - y18_54 - y8_19 - y18_63 - y48_64 - y0_24 - y11_24 - y11_42 - y12_16 - y44_48 - y2_51 - y25_53 - y1_6 - y3_43 - y22_56 - y3_52 - y14_52 - y15_17 - y14_61 - y55_62 - y18_31 - y7_40 - y48_50 - y8_23 - y48_59 - y0_28 - y6_62 - y29_64 - y21_60 - y41_47 - y41_56 - y2_46 - y10_59 - y22_24 - y25_57 - y3_20 - y14_20 - y37_49
 Subject to
C1: x0+x2 <=1 
C2: x0+x3-y0_3 <=1 
C3: x0+x5 <=1 
C4: x0+x6 <=1 
C5: x0+x7-y0_7 <=1 
C6: x0+x9-y0_9 <=1 
C7: x0+x11-y0_11 <=1 
C8: x0+x13-y0_13 <=1 
C9: x0+x16-y0_16 <=1 
C10: x0+x17 <=1 
C11: x0+x19 <=1 
C12: x0+x20-y0_20 <=1 
C13: x0+x23 <=1 
C14: x0+x24-y0_24 <=1 
C15: x0+x25 <=1 
C16: x0+x26-y0_26 <=1 
C17: x0+x28-y0_28 <=1 
C18: x0+x32-y0_32 <=1 
C19: x0+x34-y0_34 <=1 
C20: x0+x35 <=1 
C21: x0+x37 <=1 
C22: x0+x43-y0_43 <=1 
C23: x0+x47-y0_47 <=1 
C24: x0+x49-y0_49 <=1 
C25: x0+x50 <=1 
C26: x0+x52 <=1 
C27: x0+x54-y0_54 <=1 
C28: x0+x55 <=1 
C29: x0+x56-y0_56 <=1 
C30: x0+x57-y0_57 <=1 
C31: x0+x59 <=1 
C32: x0+x63-y0_63 <=1 
C33: x1+x3 <=1 
C34: x1+x5-y1_5 <=1 
C35: x1+x6-y1_6 <=1 
C36: x1+x10 <=1 
C37: x1+x13 <=1 
C38: x1+x15 <=1 
C39: x1+x17 <=1 
C40: x1+x19 <=1 
C41: x1+x22-y1_22 <=1 
C42: x1+x23 <=1 
C43: x1+x27 <=1 
C44: x1+x28 <=1 
C45: x1+x30 <=1 
C46: x1+x35 <=1 
C47: x1+x36-y1_36 <=1 
C48: x1+x38-y1_38 <=1 
C49: x1+x39-y1_39 <=1 
C50: x1+x40-y1_40 <=1 
C51: x1+x41-y1_41 <=1 
C52: x1+x42-y1_42 <=1 
C53: x1+x44 <=1 
C54: x1+x45-y1_45 <=1 
C55: x1+x46 <=1 
C56: x1+x47 <=1 
C57: x1+x49-y1_49 <=1 
C58: x1+x50 <=1 
C59: x1+x51 <=1 
C60: x1+x52 <=1 
C61: x1+x54-y1_54 <=1 
C62: x1+x55 <=1 
C63: x1+x57 <=1 
C64: x1+x59-y1_59 <=1 
C65: x1+x62 <=1 
C66: x1+x63 <=1 
C67: x1+x64 <=1 
C68: x2+x3-y2_3 <=1 
C69: x2+x4-y2_4 <=1 
C70: x2+x6-y2_6 <=1 
C71: x2+x7-y2_7 <=1 
C72: x2+x8-y2_8 <=1 
C73: x2+x10 <=1 
C74: x2+x13 <=1 
C75: x2+x14 <=1 
C76: x2+x15 <=1 
C77: x2+x16 <=1 
C78: x2+x17-y2_17 <=1 
C79: x2+x19-y2_19 <=1 
C80: x2+x20-y2_20 <=1 
C81: x2+x21-y2_21 <=1 
C82: x2+x22 <=1 
C83: x2+x23-y2_23 <=1 
C84: x2+x24-y2_24 <=1 
C85: x2+x25 <=1 
C86: x2+x26-y2_26 <=1 
C87: x2+x27-y2_27 <=1 
C88: x2+x28-y2_28 <=1 
C89: x2+x30-y2_30 <=1 
C90: x2+x31-y2_31 <=1 
C91: x2+x32 <=1 
C92: x2+x34-y2_34 <=1 
C93: x2+x35-y2_35 <=1 
C94: x2+x39-y2_39 <=1 
C95: x2+x40 <=1 
C96: x2+x41-y2_41 <=1 
C97: x2+x46-y2_46 <=1 
C98: x2+x48 <=1 
C99: x2+x49-y2_49 <=1 
C100: x2+x50 <=1 
C101: x2+x51-y2_51 <=1 
C102: x2+x52 <=1 
C103: x2+x53-y2_53 <=1 
C104: x2+x54 <=1 
C105: x2+x55 <=1 
C106: x2+x57 <=1 
C107: x2+x58 <=1 
C108: x2+x59 <=1 
C109: x2+x61-y2_61 <=1 
C110: x2+x63 <=1 
C111: x3+x4-y3_4 <=1 
C112: x3+x5-y3_5 <=1 
C113: x3+x6-y3_6 <=1 
C114: x3+x7 <=1 
C115: x3+x8-y3_8 <=1 
C116: x3+x9 <=1 
C117: x3+x11-y3_11 <=1 
C118: x3+x13 <=1 
C119: x3+x15-y3_15 <=1 
C120: x3+x16-y3_16 <=1 
C121: x3+x17 <=1 
C122: x3+x18-y3_18 <=1 
C123: x3+x19-y3_19 <=1 
C124: x3+x20-y3_20 <=1 
C125: x3+x21 <=1 
C126: x3+x23 <=1 
C127: x3+x24-y3_24 <=1 
C128: x3+x25 <=1 
C129: x3+x26 <=1 
C130: x3+x28-y3_28 <=1 
C131: x3+x32 <=1 
C132: x3+x35 <=1 
C133: x3+x38 <=1 
C134: x3+x41 <=1 
C135: x3+x43-y3_43 <=1 
C136: x3+x44 <=1 
C137: x3+x47 <=1 
C138: x3+x49-y3_49 <=1 
C139: x3+x50-y3_50 <=1 
C140: x3+x52-y3_52 <=1 
C141: x3+x53-y3_53 <=1 
C142: x3+x55 <=1 
C143: x3+x56 <=1 
C144: x3+x57 <=1 
C145: x3+x58 <=1 
C146: x3+x59 <=1 
C147: x3+x60 <=1 
C148: x3+x62-y3_62 <=1 
C149: x3+x63 <=1 
C150: x4+x5 <=1 
C151: x4+x6-y4_6 <=1 
C152: x4+x7 <=1 
C153: x4+x10-y4_10 <=1 
C154: x4+x11-y4_11 <=1 
C155: x4+x13 <=1 
C156: x4+x14 <=1 
C157: x4+x16 <=1 
C158: x4+x17-y4_17 <=1 
C159: x4+x18-y4_18 <=1 
C160: x4+x19 <=1 
C161: x4+x20-y4_20 <=1 
C162: x4+x24 <=1 
C163: x4+x27-y4_27 <=1 
C164: x4+x30 <=1 
C165: x4+x32 <=1 
C166: x4+x34-y4_34 <=1 
C167: x4+x35 <=1 
C168: x4+x36 <=1 
C169: x4+x37 <=1 
C170: x4+x39-y4_39 <=1 
C171: x4+x40 <=1 
C172: x4+x41 <=1 
C173: x4+x42-y4_42 <=1 
C174: x4+x44 <=1 
C175: x4+x48 <=1 
C176: x4+x49 <=1 
C177: x4+x55 <=1 
C178: x4+x56-y4_56 <=1 
C179: x4+x58 <=1 
C180: x4+x59 <=1 
C181: x4+x62 <=1 
C182: x5+x6-y5_6 <=1 
C183: x5+x7 <=1 
C184: x5+x8-y5_8 <=1 
C185: x5+x9-y5_9 <=1 
C186: x5+x11 <=1 
C187: x5+x14 <=1 
C188: x5+x16-y5_16 <=1 
C189: x5+x17-y5_17 <=1 
C190: x5+x21 <=1 
C191: x5+x23-y5_23 <=1 
C192: x5+x24 <=1 
C193: x5+x27 <=1 
C194: x5+x29-y5_29 <=1 
C195: x5+x30 <=1 
C196: x5+x34 <=1 
C197: x5+x38-y5_38 <=1 
C198: x5+x40-y5_40 <=1 
C199: x5+x41 <=1 
C200: x5+x44 <=1 
C201: x5+x45 <=1 
C202: x5+x47 <=1 
C203: x5+x48-y5_48 <=1 
C204: x5+x54-y5_54 <=1 
C205: x5+x55 <=1 
C206: x5+x58-y5_58 <=1 
C207: x5+x59-y5_59 <=1 
C208: x5+x60 <=1 
C209: x5+x62 <=1 
C210: x5+x63 <=1 
C211: x5+x64-y5_64 <=1 
C212: x6+x7-y6_7 <=1 
C213: x6+x8-y6_8 <=1 
C214: x6+x9-y6_9 <=1 
C215: x6+x12 <=1 
C216: x6+x13-y6_13 <=1 
C217: x6+x16-y6_16 <=1 
C218: x6+x17 <=1 
C219: x6+x18-y6_18 <=1 
C220: x6+x20-y6_20 <=1 
C221: x6+x22-y6_22 <=1 
C222: x6+x23 <=1 
C223: x6+x26 <=1 
C224: x6+x27 <=1 
C225: x6+x29 <=1 
C226: x6+x34-y6_34 <=1 
C227: x6+x36 <=1 
C228: x6+x38-y6_38 <=1 
C229: x6+x39 <=1 
C230: x6+x40 <=1 
C231: x6+x42-y6_42 <=1 
C232: x6+x43 <=1 
C233: x6+x44-y6_44 <=1 
C234: x6+x45-y6_45 <=1 
C235: x6+x47-y6_47 <=1 
C236: x6+x48-y6_48 <=1 
C237: x6+x49 <=1 
C238: x6+x52-y6_52 <=1 
C239: x6+x53 <=1 
C240: x6+x54 <=1 
C241: x6+x55 <=1 
C242: x6+x56 <=1 
C243: x6+x57 <=1 
C244: x6+x59 <=1 
C245: x6+x61 <=1 
C246: x6+x62-y6_62 <=1 
C247: x6+x63-y6_63 <=1 
C248: x6+x64-y6_64 <=1 
C249: x7+x9-y7_9 <=1 
C250: x7+x10-y7_10 <=1 
C251: x7+x11 <=1 
C252: x7+x12 <=1 
C253: x7+x14-y7_14 <=1 
C254: x7+x15-y7_15 <=1 
C255: x7+x16-y7_16 <=1 
C256: x7+x17-y7_17 <=1 
C257: x7+x19 <=1 
C258: x7+x20-y7_20 <=1 
C259: x7+x21 <=1 
C260: x7+x23 <=1 
C261: x7+x24 <=1 
C262: x7+x25-y7_25 <=1 
C263: x7+x27-y7_27 <=1 
C264: x7+x29-y7_29 <=1 
C265: x7+x30 <=1 
C266: x7+x31 <=1 
C267: x7+x32-y7_32 <=1 
C268: x7+x34 <=1 
C269: x7+x35 <=1 
C270: x7+x36-y7_36 <=1 
C271: x7+x39 <=1 
C272: x7+x40-y7_40 <=1 
C273: x7+x41-y7_41 <=1 
C274: x7+x42-y7_42 <=1 
C275: x7+x43 <=1 
C276: x7+x44-y7_44 <=1 
C277: x7+x45 <=1 
C278: x7+x47-y7_47 <=1 
C279: x7+x48-y7_48 <=1 
C280: x7+x51 <=1 
C281: x7+x52-y7_52 <=1 
C282: x7+x53 <=1 
C283: x7+x55 <=1 
C284: x7+x58 <=1 
C285: x7+x61 <=1 
C286: x7+x62 <=1 
C287: x7+x63-y7_63 <=1 
C288: x8+x12-y8_12 <=1 
C289: x8+x16 <=1 
C290: x8+x17 <=1 
C291: x8+x19-y8_19 <=1 
C292: x8+x20-y8_20 <=1 
C293: x8+x21-y8_21 <=1 
C294: x8+x22-y8_22 <=1 
C295: x8+x23-y8_23 <=1 
C296: x8+x24 <=1 
C297: x8+x26-y8_26 <=1 
C298: x8+x28 <=1 
C299: x8+x30 <=1 
C300: x8+x31 <=1 
C301: x8+x32 <=1 
C302: x8+x39 <=1 
C303: x8+x41 <=1 
C304: x8+x43 <=1 
C305: x8+x44 <=1 
C306: x8+x46 <=1 
C307: x8+x47-y8_47 <=1 
C308: x8+x50-y8_50 <=1 
C309: x8+x52 <=1 
C310: x8+x53 <=1 
C311: x8+x54-y8_54 <=1 
C312: x8+x55-y8_55 <=1 
C313: x8+x56-y8_56 <=1 
C314: x8+x57 <=1 
C315: x8+x60 <=1 
C316: x9+x12-y9_12 <=1 
C317: x9+x13 <=1 
C318: x9+x16 <=1 
C319: x9+x17 <=1 
C320: x9+x18 <=1 
C321: x9+x19 <=1 
C322: x9+x20 <=1 
C323: x9+x22-y9_22 <=1 
C324: x9+x23 <=1 
C325: x9+x26-y9_26 <=1 
C326: x9+x27-y9_27 <=1 
C327: x9+x30-y9_30 <=1 
C328: x9+x31-y9_31 <=1 
C329: x9+x32 <=1 
C330: x9+x33-y9_33 <=1 
C331: x9+x36 <=1 
C332: x9+x39-y9_39 <=1 
C333: x9+x40 <=1 
C334: x9+x41 <=1 
C335: x9+x44-y9_44 <=1 
C336: x9+x45 <=1 
C337: x9+x47-y9_47 <=1 
C338: x9+x51-y9_51 <=1 
C339: x9+x52 <=1 
C340: x9+x53-y9_53 <=1 
C341: x9+x54 <=1 
C342: x9+x55-y9_55 <=1 
C343: x9+x56-y9_56 <=1 
C344: x9+x57-y9_57 <=1 
C345: x9+x59-y9_59 <=1 
C346: x9+x60 <=1 
C347: x9+x61-y9_61 <=1 
C348: x9+x63-y9_63 <=1 
C349: x9+x64 <=1 
C350: x10+x11 <=1 
C351: x10+x12 <=1 
C352: x10+x14 <=1 
C353: x10+x15 <=1 
C354: x10+x16-y10_16 <=1 
C355: x10+x17 <=1 
C356: x10+x18 <=1 
C357: x10+x19 <=1 
C358: x10+x20 <=1 
C359: x10+x25 <=1 
C360: x10+x27-y10_27 <=1 
C361: x10+x31-y10_31 <=1 
C362: x10+x32-y10_32 <=1 
C363: x10+x35 <=1 
C364: x10+x38-y10_38 <=1 
C365: x10+x39-y10_39 <=1 
C366: x10+x40 <=1 
C367: x10+x43-y10_43 <=1 
C368: x10+x49-y10_49 <=1 
C369: x10+x50 <=1 
C370: x10+x52 <=1 
C371: x10+x54 <=1 
C372: x10+x55 <=1 
C373: x10+x56 <=1 
C374: x10+x57 <=1 
C375: x10+x58-y10_58 <=1 
C376: x10+x59-y10_59 <=1 
C377: x10+x62-y10_62 <=1 
C378: x10+x64 <=1 
C379: x11+x12 <=1 
C380: x11+x13-y11_13 <=1 
C381: x11+x14-y11_14 <=1 
C382: x11+x16 <=1 
C383: x11+x22 <=1 
C384: x11+x24-y11_24 <=1 
C385: x11+x25 <=1 
C386: x11+x27 <=1 
C387: x11+x28 <=1 
C388: x11+x29 <=1 
C389: x11+x35-y11_35 <=1 
C390: x11+x36-y11_36 <=1 
C391: x11+x37-y11_37 <=1 
C392: x11+x38 <=1 
C393: x11+x39-y11_39 <=1 
C394: x11+x40-y11_40 <=1 
C395: x11+x41-y11_41 <=1 
C396: x11+x42-y11_42 <=1 
C397: x11+x43-y11_43 <=1 
C398: x11+x44 <=1 
C399: x11+x45 <=1 
C400: x11+x46-y11_46 <=1 
C401: x11+x47-y11_47 <=1 
C402: x11+x48-y11_48 <=1 
C403: x11+x49 <=1 
C404: x11+x52-y11_52 <=1 
C405: x11+x53 <=1 
C406: x11+x56 <=1 
C407: x11+x58-y11_58 <=1 
C408: x11+x59-y11_59 <=1 
C409: x11+x61-y11_61 <=1 
C410: x11+x63-y11_63 <=1 
C411: x11+x64 <=1 
C412: x12+x13-y12_13 <=1 
C413: x12+x14-y12_14 <=1 
C414: x12+x16-y12_16 <=1 
C415: x12+x17-y12_17 <=1 
C416: x12+x18 <=1 
C417: x12+x19-y12_19 <=1 
C418: x12+x21 <=1 
C419: x12+x22-y12_22 <=1 
C420: x12+x23-y12_23 <=1 
C421: x12+x24-y12_24 <=1 
C422: x12+x25-y12_25 <=1 
C423: x12+x27 <=1 
C424: x12+x33-y12_33 <=1 
C425: x12+x35 <=1 
C426: x12+x37 <=1 
C427: x12+x38-y12_38 <=1 
C428: x12+x39 <=1 
C429: x12+x42-y12_42 <=1 
C430: x12+x44-y12_44 <=1 
C431: x12+x46 <=1 
C432: x12+x47-y12_47 <=1 
C433: x12+x50 <=1 
C434: x12+x53 <=1 
C435: x12+x54 <=1 
C436: x12+x56-y12_56 <=1 
C437: x12+x57 <=1 
C438: x12+x60 <=1 
C439: x12+x61 <=1 
C440: x12+x62-y12_62 <=1 
C441: x12+x63-y12_63 <=1 
C442: x12+x64-y12_64 <=1 
C443: x13+x15 <=1 
C444: x13+x16-y13_16 <=1 
C445: x13+x17 <=1 
C446: x13+x19 <=1 
C447: x13+x21 <=1 
C448: x13+x22 <=1 
C449: x13+x23 <=1 
C450: x13+x25-y13_25 <=1 
C451: x13+x27-y13_27 <=1 
C452: x13+x30 <=1 
C453: x13+x31-y13_31 <=1 
C454: x13+x32 <=1 
C455: x13+x33 <=1 
C456: x13+x34 <=1 
C457: x13+x35-y13_35 <=1 
C458: x13+x36-y13_36 <=1 
C459: x13+x38-y13_38 <=1 
C460: x13+x39-y13_39 <=1 
C461: x13+x40 <=1 
C462: x13+x43-y13_43 <=1 
C463: x13+x47-y13_47 <=1 
C464: x13+x48-y13_48 <=1 
C465: x13+x53-y13_53 <=1 
C466: x13+x55-y13_55 <=1 
C467: x13+x58-y13_58 <=1 
C468: x13+x59-y13_59 <=1 
C469: x13+x60 <=1 
C470: x13+x61 <=1 
C471: x13+x62 <=1 
C472: x13+x64 <=1 
C473: x14+x15 <=1 
C474: x14+x16-y14_16 <=1 
C475: x14+x17-y14_17 <=1 
C476: x14+x18-y14_18 <=1 
C477: x14+x19 <=1 
C478: x14+x20-y14_20 <=1 
C479: x14+x21 <=1 
C480: x14+x22-y14_22 <=1 
C481: x14+x23-y14_23 <=1 
C482: x14+x25-y14_25 <=1 
C483: x14+x27 <=1 
C484: x14+x28-y14_28 <=1 
C485: x14+x29 <=1 
C486: x14+x31 <=1 
C487: x14+x33 <=1 
C488: x14+x35 <=1 
C489: x14+x36 <=1 
C490: x14+x37 <=1 
C491: x14+x39 <=1 
C492: x14+x41 <=1 
C493: x14+x42-y14_42 <=1 
C494: x14+x45-y14_45 <=1 
C495: x14+x46 <=1 
C496: x14+x47 <=1 
C497: x14+x49-y14_49 <=1 
C498: x14+x50 <=1 
C499: x14+x52-y14_52 <=1 
C500: x14+x53-y14_53 <=1 
C501: x14+x54 <=1 
C502: x14+x56 <=1 
C503: x14+x58 <=1 
C504: x14+x59-y14_59 <=1 
C505: x14+x61-y14_61 <=1 
C506: x14+x62-y14_62 <=1 
C507: x14+x63-y14_63 <=1 
C508: x14+x64 <=1 
C509: x15+x17-y15_17 <=1 
C510: x15+x18 <=1 
C511: x15+x19 <=1 
C512: x15+x21 <=1 
C513: x15+x22 <=1 
C514: x15+x23 <=1 
C515: x15+x24-y15_24 <=1 
C516: x15+x25-y15_25 <=1 
C517: x15+x26 <=1 
C518: x15+x27 <=1 
C519: x15+x28-y15_28 <=1 
C520: x15+x29 <=1 
C521: x15+x34 <=1 
C522: x15+x35 <=1 
C523: x15+x36-y15_36 <=1 
C524: x15+x37 <=1 
C525: x15+x38-y15_38 <=1 
C526: x15+x40 <=1 
C527: x15+x42 <=1 
C528: x15+x43-y15_43 <=1 
C529: x15+x45-y15_45 <=1 
C530: x15+x46-y15_46 <=1 
C531: x15+x47 <=1 
C532: x15+x48 <=1 
C533: x15+x49 <=1 
C534: x15+x53 <=1 
C535: x15+x57 <=1 
C536: x15+x59-y15_59 <=1 
C537: x15+x61-y15_61 <=1 
C538: x15+x62 <=1 
C539: x15+x63-y15_63 <=1 
C540: x16+x17 <=1 
C541: x16+x19-y16_19 <=1 
C542: x16+x20 <=1 
C543: x16+x21-y16_21 <=1 
C544: x16+x24-y16_24 <=1 
C545: x16+x25-y16_25 <=1 
C546: x16+x26 <=1 
C547: x16+x27 <=1 
C548: x16+x29-y16_29 <=1 
C549: x16+x30 <=1 
C550: x16+x31-y16_31 <=1 
C551: x16+x36 <=1 
C552: x16+x37 <=1 
C553: x16+x38 <=1 
C554: x16+x39-y16_39 <=1 
C555: x16+x40 <=1 
C556: x16+x41-y16_41 <=1 
C557: x16+x42 <=1 
C558: x16+x46-y16_46 <=1 
C559: x16+x48 <=1 
C560: x16+x49 <=1 
C561: x16+x50 <=1 
C562: x16+x51-y16_51 <=1 
C563: x16+x52-y16_52 <=1 
C564: x16+x53 <=1 
C565: x16+x54 <=1 
C566: x16+x55-y16_55 <=1 
C567: x16+x56 <=1 
C568: x16+x57-y16_57 <=1 
C569: x16+x58-y16_58 <=1 
C570: x16+x60-y16_60 <=1 
C571: x16+x61 <=1 
C572: x16+x62-y16_62 <=1 
C573: x16+x63-y16_63 <=1 
C574: x17+x18-y17_18 <=1 
C575: x17+x19-y17_19 <=1 
C576: x17+x20 <=1 
C577: x17+x21 <=1 
C578: x17+x23 <=1 
C579: x17+x24-y17_24 <=1 
C580: x17+x25-y17_25 <=1 
C581: x17+x26-y17_26 <=1 
C582: x17+x27 <=1 
C583: x17+x30-y17_30 <=1 
C584: x17+x31-y17_31 <=1 
C585: x17+x32 <=1 
C586: x17+x33 <=1 
C587: x17+x34 <=1 
C588: x17+x35 <=1 
C589: x17+x36-y17_36 <=1 
C590: x17+x40-y17_40 <=1 
C591: x17+x41-y17_41 <=1 
C592: x17+x42-y17_42 <=1 
C593: x17+x45 <=1 
C594: x17+x46-y17_46 <=1 
C595: x17+x47 <=1 
C596: x17+x48 <=1 
C597: x17+x51-y17_51 <=1 
C598: x17+x52-y17_52 <=1 
C599: x17+x54-y17_54 <=1 
C600: x17+x56-y17_56 <=1 
C601: x17+x57 <=1 
C602: x17+x58 <=1 
C603: x17+x59 <=1 
C604: x17+x60-y17_60 <=1 
C605: x17+x63 <=1 
C606: x17+x64 <=1 
C607: x18+x19 <=1 
C608: x18+x21-y18_21 <=1 
C609: x18+x23 <=1 
C610: x18+x25 <=1 
C611: x18+x30-y18_30 <=1 
C612: x18+x31-y18_31 <=1 
C613: x18+x32-y18_32 <=1 
C614: x18+x35 <=1 
C615: x18+x36 <=1 
C616: x18+x39-y18_39 <=1 
C617: x18+x41 <=1 
C618: x18+x42-y18_42 <=1 
C619: x18+x47 <=1 
C620: x18+x48 <=1 
C621: x18+x52 <=1 
C622: x18+x53-y18_53 <=1 
C623: x18+x54-y18_54 <=1 
C624: x18+x55-y18_55 <=1 
C625: x18+x57-y18_57 <=1 
C626: x18+x59 <=1 
C627: x18+x61 <=1 
C628: x18+x62-y18_62 <=1 
C629: x18+x63-y18_63 <=1 
C630: x18+x64-y18_64 <=1 
C631: x19+x20-y19_20 <=1 
C632: x19+x24 <=1 
C633: x19+x32-y19_32 <=1 
C634: x19+x33 <=1 
C635: x19+x34 <=1 
C636: x19+x35-y19_35 <=1 
C637: x19+x39-y19_39 <=1 
C638: x19+x41-y19_41 <=1 
C639: x19+x42-y19_42 <=1 
C640: x19+x43 <=1 
C641: x19+x44-y19_44 <=1 
C642: x19+x45 <=1 
C643: x19+x47-y19_47 <=1 
C644: x19+x48-y19_48 <=1 
C645: x19+x49 <=1 
C646: x19+x53-y19_53 <=1 
C647: x19+x54-y19_54 <=1 
C648: x19+x56-y19_56 <=1 
C649: x19+x61 <=1 
C650: x19+x64 <=1 
C651: x20+x22 <=1 
C652: x20+x25-y20_25 <=1 
C653: x20+x27-y20_27 <=1 
C654: x20+x28-y20_28 <=1 
C655: x20+x29-y20_29 <=1 
C656: x20+x30-y20_30 <=1 
C657: x20+x31 <=1 
C658: x20+x32-y20_32 <=1 
C659: x20+x33-y20_33 <=1 
C660: x20+x34 <=1 
C661: x20+x38-y20_38 <=1 
C662: x20+x40 <=1 
C663: x20+x41-y20_41 <=1 
C664: x20+x43-y20_43 <=1 
C665: x20+x44-y20_44 <=1 
C666: x20+x45 <=1 
C667: x20+x46-y20_46 <=1 
C668: x20+x47-y20_47 <=1 
C669: x20+x48-y20_48 <=1 
C670: x20+x50-y20_50 <=1 
C671: x20+x52 <=1 
C672: x20+x54 <=1 
C673: x20+x55 <=1 
C674: x20+x56 <=1 
C675: x20+x58 <=1 
C676: x20+x61 <=1 
C677: x20+x63 <=1 
C678: x20+x64 <=1 
C679: x21+x22-y21_22 <=1 
C680: x21+x23-y21_23 <=1 
C681: x21+x27-y21_27 <=1 
C682: x21+x28 <=1 
C683: x21+x29-y21_29 <=1 
C684: x21+x31-y21_31 <=1 
C685: x21+x34 <=1 
C686: x21+x35-y21_35 <=1 
C687: x21+x38-y21_38 <=1 
C688: x21+x39 <=1 
C689: x21+x41-y21_41 <=1 
C690: x21+x44 <=1 
C691: x21+x47 <=1 
C692: x21+x51 <=1 
C693: x21+x52-y21_52 <=1 
C694: x21+x53 <=1 
C695: x21+x54-y21_54 <=1 
C696: x21+x55-y21_55 <=1 
C697: x21+x57-y21_57 <=1 
C698: x21+x59 <=1 
C699: x21+x60-y21_60 <=1 
C700: x21+x61 <=1 
C701: x21+x62 <=1 
C702: x21+x63 <=1 
C703: x21+x64-y21_64 <=1 
C704: x22+x24-y22_24 <=1 
C705: x22+x25 <=1 
C706: x22+x26 <=1 
C707: x22+x30 <=1 
C708: x22+x32 <=1 
C709: x22+x33 <=1 
C710: x22+x35-y22_35 <=1 
C711: x22+x36-y22_36 <=1 
C712: x22+x37-y22_37 <=1 
C713: x22+x39-y22_39 <=1 
C714: x22+x43-y22_43 <=1 
C715: x22+x44 <=1 
C716: x22+x46-y22_46 <=1 
C717: x22+x48-y22_48 <=1 
C718: x22+x49-y22_49 <=1 
C719: x22+x50 <=1 
C720: x22+x51 <=1 
C721: x22+x52 <=1 
C722: x22+x53-y22_53 <=1 
C723: x22+x54-y22_54 <=1 
C724: x22+x56-y22_56 <=1 
C725: x22+x58 <=1 
C726: x22+x60-y22_60 <=1 
C727: x22+x61 <=1 
C728: x22+x62 <=1 
C729: x22+x63 <=1 
C730: x23+x25-y23_25 <=1 
C731: x23+x28 <=1 
C732: x23+x30 <=1 
C733: x23+x32 <=1 
C734: x23+x33 <=1 
C735: x23+x35-y23_35 <=1 
C736: x23+x36 <=1 
C737: x23+x39 <=1 
C738: x23+x42 <=1 
C739: x23+x43 <=1 
C740: x23+x44 <=1 
C741: x23+x45 <=1 
C742: x23+x46-y23_46 <=1 
C743: x23+x47-y23_47 <=1 
C744: x23+x52-y23_52 <=1 
C745: x23+x53-y23_53 <=1 
C746: x23+x54 <=1 
C747: x23+x57-y23_57 <=1 
C748: x23+x58 <=1 
C749: x23+x59 <=1 
C750: x23+x60-y23_60 <=1 
C751: x23+x62-y23_62 <=1 
C752: x23+x64-y23_64 <=1 
C753: x24+x25-y24_25 <=1 
C754: x24+x26-y24_26 <=1 
C755: x24+x29-y24_29 <=1 
C756: x24+x30-y24_30 <=1 
C757: x24+x34 <=1 
C758: x24+x35 <=1 
C759: x24+x37-y24_37 <=1 
C760: x24+x38-y24_38 <=1 
C761: x24+x39 <=1 
C762: x24+x40-y24_40 <=1 
C763: x24+x42-y24_42 <=1 
C764: x24+x44 <=1 
C765: x24+x46 <=1 
C766: x24+x48 <=1 
C767: x24+x50-y24_50 <=1 
C768: x24+x51 <=1 
C769: x24+x53 <=1 
C770: x24+x56 <=1 
C771: x24+x57 <=1 
C772: x24+x58 <=1 
C773: x24+x62-y24_62 <=1 
C774: x24+x64-y24_64 <=1 
C775: x25+x26 <=1 
C776: x25+x27 <=1 
C777: x25+x30 <=1 
C778: x25+x33 <=1 
C779: x25+x34-y25_34 <=1 
C780: x25+x37 <=1 
C781: x25+x38 <=1 
C782: x25+x39 <=1 
C783: x25+x41 <=1 
C784: x25+x45-y25_45 <=1 
C785: x25+x46-y25_46 <=1 
C786: x25+x47 <=1 
C787: x25+x49 <=1 
C788: x25+x52 <=1 
C789: x25+x53-y25_53 <=1 
C790: x25+x55-y25_55 <=1 
C791: x25+x56 <=1 
C792: x25+x57-y25_57 <=1 
C793: x25+x59-y25_59 <=1 
C794: x25+x60 <=1 
C795: x25+x61-y25_61 <=1 
C796: x25+x62 <=1 
C797: x25+x63 <=1 
C798: x25+x64-y25_64 <=1 
C799: x26+x27-y26_27 <=1 
C800: x26+x30-y26_30 <=1 
C801: x26+x31 <=1 
C802: x26+x34-y26_34 <=1 
C803: x26+x35 <=1 
C804: x26+x39 <=1 
C805: x26+x42 <=1 
C806: x26+x43-y26_43 <=1 
C807: x26+x44 <=1 
C808: x26+x45 <=1 
C809: x26+x48-y26_48 <=1 
C810: x26+x50 <=1 
C811: x26+x51 <=1 
C812: x26+x52 <=1 
C813: x26+x53-y26_53 <=1 
C814: x26+x54-y26_54 <=1 
C815: x26+x55 <=1 
C816: x26+x56-y26_56 <=1 
C817: x26+x57 <=1 
C818: x26+x59 <=1 
C819: x26+x60-y26_60 <=1 
C820: x26+x61-y26_61 <=1 
C821: x26+x62-y26_62 <=1 
C822: x26+x64 <=1 
C823: x27+x28-y27_28 <=1 
C824: x27+x29 <=1 
C825: x27+x31-y27_31 <=1 
C826: x27+x35-y27_35 <=1 
C827: x27+x37-y27_37 <=1 
C828: x27+x39-y27_39 <=1 
C829: x27+x40-y27_40 <=1 
C830: x27+x41 <=1 
C831: x27+x42-y27_42 <=1 
C832: x27+x46 <=1 
C833: x27+x47-y27_47 <=1 
C834: x27+x51 <=1 
C835: x27+x52-y27_52 <=1 
C836: x27+x53-y27_53 <=1 
C837: x27+x54 <=1 
C838: x27+x55 <=1 
C839: x27+x56-y27_56 <=1 
C840: x27+x57-y27_57 <=1 
C841: x27+x58-y27_58 <=1 
C842: x27+x59 <=1 
C843: x27+x60-y27_60 <=1 
C844: x27+x61 <=1 
C845: x27+x62-y27_62 <=1 
C846: x28+x29 <=1 
C847: x28+x33 <=1 
C848: x28+x36 <=1 
C849: x28+x37 <=1 
C850: x28+x39-y28_39 <=1 
C851: x28+x40-y28_40 <=1 
C852: x28+x42 <=1 
C853: x28+x45 <=1 
C854: x28+x46 <=1 
C855: x28+x47-y28_47 <=1 
C856: x28+x49-y28_49 <=1 
C857: x28+x52-y28_52 <=1 
C858: x28+x53-y28_53 <=1 
C859: x28+x54 <=1 
C860: x28+x55-y28_55 <=1 
C861: x28+x56-y28_56 <=1 
C862: x28+x58 <=1 
C863: x28+x59-y28_59 <=1 
C864: x28+x61 <=1 
C865: x28+x63-y28_63 <=1 
C866: x29+x30-y29_30 <=1 
C867: x29+x33-y29_33 <=1 
C868: x29+x34-y29_34 <=1 
C869: x29+x35 <=1 
C870: x29+x36-y29_36 <=1 
C871: x29+x37 <=1 
C872: x29+x39-y29_39 <=1 
C873: x29+x42 <=1 
C874: x29+x44-y29_44 <=1 
C875: x29+x46 <=1 
C876: x29+x47-y29_47 <=1 
C877: x29+x48-y29_48 <=1 
C878: x29+x51-y29_51 <=1 
C879: x29+x52 <=1 
C880: x29+x53 <=1 
C881: x29+x54 <=1 
C882: x29+x57-y29_57 <=1 
C883: x29+x58 <=1 
C884: x29+x59 <=1 
C885: x29+x61-y29_61 <=1 
C886: x29+x62-y29_62 <=1 
C887: x29+x63 <=1 
C888: x29+x64-y29_64 <=1 
C889: x30+x33 <=1 
C890: x30+x36-y30_36 <=1 
C891: x30+x37 <=1 
C892: x30+x39-y30_39 <=1 
C893: x30+x41 <=1 
C894: x30+x42-y30_42 <=1 
C895: x30+x43 <=1 
C896: x30+x45 <=1 
C897: x30+x46-y30_46 <=1 
C898: x30+x47 <=1 
C899: x30+x49 <=1 
C900: x30+x51 <=1 
C901: x30+x52 <=1 
C902: x30+x53 <=1 
C903: x30+x54-y30_54 <=1 
C904: x30+x55-y30_55 <=1 
C905: x30+x56-y30_56 <=1 
C906: x30+x57-y30_57 <=1 
C907: x30+x59 <=1 
C908: x30+x61-y30_61 <=1 
C909: x30+x62 <=1 
C910: x30+x64 <=1 
C911: x31+x32 <=1 
C912: x31+x33 <=1 
C913: x31+x34-y31_34 <=1 
C914: x31+x36-y31_36 <=1 
C915: x31+x38 <=1 
C916: x31+x39-y31_39 <=1 
C917: x31+x42-y31_42 <=1 
C918: x31+x43-y31_43 <=1 
C919: x31+x44-y31_44 <=1 
C920: x31+x45-y31_45 <=1 
C921: x31+x49-y31_49 <=1 
C922: x31+x50-y31_50 <=1 
C923: x31+x51 <=1 
C924: x31+x52 <=1 
C925: x31+x54-y31_54 <=1 
C926: x31+x55 <=1 
C927: x31+x58-y31_58 <=1 
C928: x31+x59-y31_59 <=1 
C929: x31+x60 <=1 
C930: x31+x61 <=1 
C931: x31+x63-y31_63 <=1 
C932: x32+x34 <=1 
C933: x32+x35 <=1 
C934: x32+x37-y32_37 <=1 
C935: x32+x38-y32_38 <=1 
C936: x32+x40-y32_40 <=1 
C937: x32+x44 <=1 
C938: x32+x45-y32_45 <=1 
C939: x32+x46-y32_46 <=1 
C940: x32+x47-y32_47 <=1 
C941: x32+x48 <=1 
C942: x32+x49-y32_49 <=1 
C943: x32+x50-y32_50 <=1 
C944: x32+x53 <=1 
C945: x32+x55-y32_55 <=1 
C946: x32+x57 <=1 
C947: x32+x58-y32_58 <=1 
C948: x32+x59-y32_59 <=1 
C949: x32+x60 <=1 
C950: x32+x61 <=1 
C951: x32+x62-y32_62 <=1 
C952: x32+x64-y32_64 <=1 
C953: x33+x34 <=1 
C954: x33+x36-y33_36 <=1 
C955: x33+x37-y33_37 <=1 
C956: x33+x38-y33_38 <=1 
C957: x33+x40-y33_40 <=1 
C958: x33+x41 <=1 
C959: x33+x44-y33_44 <=1 
C960: x33+x45-y33_45 <=1 
C961: x33+x46-y33_46 <=1 
C962: x33+x47 <=1 
C963: x33+x49-y33_49 <=1 
C964: x33+x50-y33_50 <=1 
C965: x33+x56 <=1 
C966: x33+x58 <=1 
C967: x33+x59-y33_59 <=1 
C968: x33+x61 <=1 
C969: x33+x62-y33_62 <=1 
C970: x33+x63-y33_63 <=1 
C971: x33+x64 <=1 
C972: x34+x36 <=1 
C973: x34+x37 <=1 
C974: x34+x38-y34_38 <=1 
C975: x34+x39-y34_39 <=1 
C976: x34+x41-y34_41 <=1 
C977: x34+x42-y34_42 <=1 
C978: x34+x43-y34_43 <=1 
C979: x34+x46-y34_46 <=1 
C980: x34+x49 <=1 
C981: x34+x51-y34_51 <=1 
C982: x34+x53 <=1 
C983: x34+x54-y34_54 <=1 
C984: x34+x56 <=1 
C985: x34+x62-y34_62 <=1 
C986: x35+x37 <=1 
C987: x35+x39 <=1 
C988: x35+x42 <=1 
C989: x35+x43 <=1 
C990: x35+x44-y35_44 <=1 
C991: x35+x45-y35_45 <=1 
C992: x35+x46-y35_46 <=1 
C993: x35+x47 <=1 
C994: x35+x48 <=1 
C995: x35+x49 <=1 
C996: x35+x51 <=1 
C997: x35+x52 <=1 
C998: x35+x54-y35_54 <=1 
C999: x35+x55-y35_55 <=1 
C1000: x35+x56-y35_56 <=1 
C1001: x35+x57 <=1 
C1002: x35+x58-y35_58 <=1 
C1003: x35+x59-y35_59 <=1 
C1004: x35+x62-y35_62 <=1 
C1005: x35+x64 <=1 
C1006: x36+x40 <=1 
C1007: x36+x41 <=1 
C1008: x36+x42-y36_42 <=1 
C1009: x36+x43-y36_43 <=1 
C1010: x36+x45 <=1 
C1011: x36+x46-y36_46 <=1 
C1012: x36+x47 <=1 
C1013: x36+x48 <=1 
C1014: x36+x49 <=1 
C1015: x36+x51-y36_51 <=1 
C1016: x36+x54 <=1 
C1017: x36+x59-y36_59 <=1 
C1018: x36+x63-y36_63 <=1 
C1019: x36+x64 <=1 
C1020: x37+x39 <=1 
C1021: x37+x42-y37_42 <=1 
C1022: x37+x43 <=1 
C1023: x37+x44 <=1 
C1024: x37+x46 <=1 
C1025: x37+x47 <=1 
C1026: x37+x49-y37_49 <=1 
C1027: x37+x50 <=1 
C1028: x37+x52-y37_52 <=1 
C1029: x37+x54 <=1 
C1030: x37+x55 <=1 
C1031: x37+x57-y37_57 <=1 
C1032: x37+x59-y37_59 <=1 
C1033: x37+x60 <=1 
C1034: x37+x62-y37_62 <=1 
C1035: x37+x64-y37_64 <=1 
C1036: x38+x39 <=1 
C1037: x38+x40 <=1 
C1038: x38+x44-y38_44 <=1 
C1039: x38+x46-y38_46 <=1 
C1040: x38+x47 <=1 
C1041: x38+x48-y38_48 <=1 
C1042: x38+x50 <=1 
C1043: x38+x53-y38_53 <=1 
C1044: x38+x54-y38_54 <=1 
C1045: x38+x59 <=1 
C1046: x38+x60-y38_60 <=1 
C1047: x38+x62-y38_62 <=1 
C1048: x39+x43 <=1 
C1049: x39+x44-y39_44 <=1 
C1050: x39+x49 <=1 
C1051: x39+x51-y39_51 <=1 
C1052: x39+x53-y39_53 <=1 
C1053: x39+x55 <=1 
C1054: x39+x57 <=1 
C1055: x39+x58 <=1 
C1056: x39+x59-y39_59 <=1 
C1057: x39+x60-y39_60 <=1 
C1058: x39+x61-y39_61 <=1 
C1059: x39+x62-y39_62 <=1 
C1060: x39+x63 <=1 
C1061: x39+x64 <=1 
C1062: x40+x44-y40_44 <=1 
C1063: x40+x45 <=1 
C1064: x40+x46 <=1 
C1065: x40+x47-y40_47 <=1 
C1066: x40+x49 <=1 
C1067: x40+x52 <=1 
C1068: x40+x53 <=1 
C1069: x40+x57 <=1 
C1070: x40+x60 <=1 
C1071: x40+x61-y40_61 <=1 
C1072: x40+x62-y40_62 <=1 
C1073: x40+x64 <=1 
C1074: x41+x43 <=1 
C1075: x41+x45 <=1 
C1076: x41+x47-y41_47 <=1 
C1077: x41+x48 <=1 
C1078: x41+x50-y41_50 <=1 
C1079: x41+x54 <=1 
C1080: x41+x55-y41_55 <=1 
C1081: x41+x56-y41_56 <=1 
C1082: x41+x57 <=1 
C1083: x41+x58-y41_58 <=1 
C1084: x41+x62-y41_62 <=1 
C1085: x42+x43-y42_43 <=1 
C1086: x42+x44-y42_44 <=1 
C1087: x42+x46-y42_46 <=1 
C1088: x42+x47-y42_47 <=1 
C1089: x42+x48 <=1 
C1090: x42+x49-y42_49 <=1 
C1091: x42+x50-y42_50 <=1 
C1092: x42+x51-y42_51 <=1 
C1093: x42+x53-y42_53 <=1 
C1094: x42+x54 <=1 
C1095: x42+x55-y42_55 <=1 
C1096: x42+x56-y42_56 <=1 
C1097: x42+x58-y42_58 <=1 
C1098: x42+x59-y42_59 <=1 
C1099: x42+x60-y42_60 <=1 
C1100: x42+x64-y42_64 <=1 
C1101: x43+x46 <=1 
C1102: x43+x50-y43_50 <=1 
C1103: x43+x53 <=1 
C1104: x43+x57 <=1 
C1105: x43+x58 <=1 
C1106: x43+x59 <=1 
C1107: x43+x61-y43_61 <=1 
C1108: x43+x62-y43_62 <=1 
C1109: x43+x63-y43_63 <=1 
C1110: x43+x64-y43_64 <=1 
C1111: x44+x45 <=1 
C1112: x44+x47-y44_47 <=1 
C1113: x44+x48-y44_48 <=1 
C1114: x44+x49-y44_49 <=1 
C1115: x44+x51-y44_51 <=1 
C1116: x44+x56 <=1 
C1117: x44+x57 <=1 
C1118: x44+x58 <=1 
C1119: x44+x59 <=1 
C1120: x44+x60 <=1 
C1121: x44+x63-y44_63 <=1 
C1122: x44+x64 <=1 
C1123: x45+x46-y45_46 <=1 
C1124: x45+x50 <=1 
C1125: x45+x51-y45_51 <=1 
C1126: x45+x52 <=1 
C1127: x45+x53-y45_53 <=1 
C1128: x45+x55-y45_55 <=1 
C1129: x45+x60-y45_60 <=1 
C1130: x45+x63 <=1 
C1131: x45+x64 <=1 
C1132: x46+x47 <=1 
C1133: x46+x49 <=1 
C1134: x46+x51 <=1 
C1135: x46+x52-y46_52 <=1 
C1136: x46+x54 <=1 
C1137: x46+x56-y46_56 <=1 
C1138: x46+x57-y46_57 <=1 
C1139: x46+x58 <=1 
C1140: x46+x59-y46_59 <=1 
C1141: x46+x60 <=1 
C1142: x46+x62 <=1 
C1143: x46+x64-y46_64 <=1 
C1144: x47+x48-y47_48 <=1 
C1145: x47+x51-y47_51 <=1 
C1146: x47+x53 <=1 
C1147: x47+x54 <=1 
C1148: x47+x56 <=1 
C1149: x47+x57-y47_57 <=1 
C1150: x47+x59 <=1 
C1151: x47+x60 <=1 
C1152: x47+x61 <=1 
C1153: x47+x62 <=1 
C1154: x47+x63-y47_63 <=1 
C1155: x48+x49 <=1 
C1156: x48+x50-y48_50 <=1 
C1157: x48+x51-y48_51 <=1 
C1158: x48+x55 <=1 
C1159: x48+x56-y48_56 <=1 
C1160: x48+x57 <=1 
C1161: x48+x58-y48_58 <=1 
C1162: x48+x59-y48_59 <=1 
C1163: x48+x61-y48_61 <=1 
C1164: x48+x62-y48_62 <=1 
C1165: x48+x64-y48_64 <=1 
C1166: x49+x50-y49_50 <=1 
C1167: x49+x51-y49_51 <=1 
C1168: x49+x52 <=1 
C1169: x49+x53 <=1 
C1170: x49+x59-y49_59 <=1 
C1171: x49+x61 <=1 
C1172: x49+x64 <=1 
C1173: x50+x51-y50_51 <=1 
C1174: x50+x52-y50_52 <=1 
C1175: x50+x56-y50_56 <=1 
C1176: x50+x58-y50_58 <=1 
C1177: x50+x63-y50_63 <=1 
C1178: x51+x52 <=1 
C1179: x51+x54 <=1 
C1180: x51+x55 <=1 
C1181: x51+x56 <=1 
C1182: x51+x57-y51_57 <=1 
C1183: x51+x58-y51_58 <=1 
C1184: x51+x59-y51_59 <=1 
C1185: x51+x60-y51_60 <=1 
C1186: x51+x61 <=1 
C1187: x51+x64-y51_64 <=1 
C1188: x52+x53 <=1 
C1189: x52+x54 <=1 
C1190: x52+x55 <=1 
C1191: x52+x57 <=1 
C1192: x52+x60 <=1 
C1193: x52+x61 <=1 
C1194: x52+x62-y52_62 <=1 
C1195: x52+x63-y52_63 <=1 
C1196: x52+x64 <=1 
C1197: x53+x54 <=1 
C1198: x53+x55 <=1 
C1199: x53+x56-y53_56 <=1 
C1200: x53+x57 <=1 
C1201: x53+x60-y53_60 <=1 
C1202: x53+x63 <=1 
C1203: x54+x56 <=1 
C1204: x54+x58 <=1 
C1205: x54+x59 <=1 
C1206: x54+x60 <=1 
C1207: x54+x62 <=1 
C1208: x54+x63 <=1 
C1209: x54+x64-y54_64 <=1 
C1210: x55+x56 <=1 
C1211: x55+x57 <=1 
C1212: x55+x58-y55_58 <=1 
C1213: x55+x60-y55_60 <=1 
C1214: x55+x61-y55_61 <=1 
C1215: x55+x62-y55_62 <=1 
C1216: x56+x57-y56_57 <=1 
C1217: x56+x60 <=1 
C1218: x56+x61 <=1 
C1219: x56+x64-y56_64 <=1 
C1220: x57+x63 <=1 
C1221: x58+x61-y58_61 <=1 
C1222: x58+x62 <=1 
C1223: x58+x64-y58_64 <=1 
C1224: x60+x61 <=1 
C1225: x60+x62 <=1 
C1226: x60+x63-y60_63 <=1 
C1227: x60+x64 <=1 
C1228: x61+x62 <=1 
C1229: x61+x63 <=1 
C1230: x62+x63-y62_63 <=1 
C1231: x62+x64-y62_64 <=1 

binary
x0
x1
x2
x3
x4
x5
x6
x7
x8
x9
x10
x11
x12
x13
x14
x15
x16
x17
x18
x19
x20
x21
x22
x23
x24
x25
x26
x27
x28
x29
x30
x31
x32
x33
x34
x35
x36
x37
x38
x39
x40
x41
x42
x43
x44
x45
x46
x47
x48
x49
x50
x51
x52
x53
x54
x55
x56
x57
x58
x59
x60
x61
x62
x63
x64
